c This is a DIMACS format file generated from your vis.js graph
p edge 20 19
e 1 2 1
e 1 3 1
e 2 4 1
e 2 5 1
e 3 6 1
e 3 7 1
e 4 8 1
e 4 9 1
e 5 10 1
e 5 11 1
e 6 12 1
e 6 13 1
e 7 14 1
e 7 15 1
e 8 16 1
e 8 17 1
e 9 18 1
e 9 19 1
e 10 20 1
